000 000 000 000 000 -99 000 -99 -99 -99 -99 -99 -99 000 000 000 -99 -99 000 000 000 000 -99 -99 -99 -99 000 000 000 -99 000
000 000 000 000 000 -99 -99 -99 -99 -99 -99 -99 -99 000 000 000 -99 -99 -99 000 000 000 000 -99 -99 -99 000 000 000 -99 000
-99 -99 000 000 000 -99 -99 -99 -99 -99 -99 -99 -99 -99 000 000 -99 -99 -99 -99 -99 000 000 -99 -99 -99 000 000 000 -99 -99
-99 -99 000 000 000 000 -99 -99 000 000 -99 -99 -99 -99 000 -99 -99 -99 -99 -99 -99 -99 000 000 000 -99 -99 000 -99 -99 -99
000 000 -99 000 000 -99 000 -99 000 000 -99 -99 -99 000 000 000 -99 -99 -99 -99 000 000 000 000 000 000 000 -99 -99 -99 -99
000 000 000 000 000 -99 000 000 000 000 -99 -99 000 000 000 -99 -99 -99 -99 -99 000 000 000 000 000 000 000 -99 -99 -99 -99
000 000 000 -99 -99 -99 -99 000 000 000 000 -99 000 000 000 000 000 000 -99 -99 000 000 000 000 000 000 000 -99 -99 -99 -99
000 000 000 -99 -99 -99 -99 000 000 000 000 -99 -99 000 000 000 000 000 000 -99 000 000 000 000 000 000 -99 -99 -99 000 000
-99 000 000 -99 -99 -99 -99 -99 000 000 000 000 -99 -99 -99 -99 -99 000 000 -99 000 000 000 000 000 000 000 000 -99 000 000
-99 000 000 000 000 -99 -99 -99 -99 000 000 000 -99 -99 -99 -99 -99 000 000 000 000 000 000 -99 000 000 000 000 000 000 000
000 000 -99 000 000 000 -99 -99 -99 000 000 000 000 000 -99 000 -99 000 000 -99 -99 -99 000 000 000 000 001 000 000 000 000
000 000 000 000 000 000 000 000 -99 000 000 000 000 000 -99 000 -99 000 000 000 -99 -99 -99 000 000 -99 003 000 000 000 000
000 000 000 000 000 000 000 000 -99 000 000 000 000 -99 -99 000 000 -99 000 -99 -99 000 -99 -99 -99 000 000 015 003 000 000
000 000 000 000 000 000 000 000 -99 -99 000 000 000 -99 -99 000 000 -99 000 000 -99 000 -99 -99 -99 000 000 012 009 -99 -99
000 -99 000 000 000 000 000 000 000 -99 -99 -99 000 000 -99 -99 000 000 000 000 -99 -99 -99 -99 -99 000 000 002 001 000 000
000 -99 000 000 000 000 000 000 000 -99 -99 -99 000 -99 -99 -99 000 000 000 -99 -99 000 -99 -99 -99 000 000 000 000 000 000
-99 -99 -99 -99 -99 -99 000 000 000 -99 -99 -99 -99 -99 -99 -99 000 000 000 -99 -99 -99 -99 -99 -99 000 000 000 000 000 -99
000 -99 000 -99 -99 -99 -99 000 000 -99 -99 -99 -99 -99 -99 -99 000 000 -99 -99 -99 -99 000 -99 -99 000 000 000 000 000 -99
000 000 000 000 -99 -99 -99 000 000 -99 -99 000 -99 -99 -99 000 000 000 000 -99 -99 -99 000 -99 -99 -99 -99 000 000 000 -99
000 000 000 000 -99 000 -99 000 000 000 000 000 -99 -99 -99 -99 000 000 000 -99 -99 -99 000 -99 -99 -99 -99 -99 -99 000 -99
000 000 000 000 000 000 -99 000 000 000 -99 -99 -99 -99 -99 -99 000 000 000 000 000 000 000 -99 -99 -99 -99 -99 -99 -99 -99
000 000 000 000 000 000 -99 000 000 000 -99 -99 -99 -99 -99 000 000 000 000 000 000 000 000 -99 -99 -99 -99 -99 -99 -99 -99
000 000 000 000 000 000 -99 000 000 000 -99 -99 -99 -99 -99 000 000 000 000 000 000 000 000 -99 -99 -99 -99 -99 -99 -99 -99
000 000 000 000 000 000 000 000 000 000 -99 -99 -99 000 000 000 000 000 000 000 000 000 000 -99 -99 -99 -99 -99 -99 -99 000
000 000 000 000 000 000 000 000 000 -99 -99 -99 000 000 000 000 000 000 000 000 000 000 000 -99 -99 -99 -99 -99 -99 -99 000
000 000 000 000 000 000 000 000 000 000 -99 -99 -99 000 000 000 000 000 000 000 -99 -99 -99 -99 -99 -99 -99 -99 -99 000 000
000 000 000 000 000 000 000 000 000 000 -99 -99 -99 000 -99 000 000 000 000 000 -99 000 000 -99 -99 -99 -99 -99 -99 000 000
000 000 -99 000 000 000 000 000 000 000 000 -99 -99 -99 000 000 000 000 000 000 000 000 000 -99 -99 -99 -99 -99 -99 -99 000
000 000 000 -99 000 000 000 000 000 000 000 -99 -99 000 000 000 000 000 000 000 000 000 -99 -99 -99 -99 -99 -99 -99 -99 -99
000 000 000 -99 000 000 000 000 000 000 000 -99 -99 000 000 000 000 000 000 000 000 000 -99 -99 -99 -99 -99 -99 -99 -99 -99
000 000 000 000 000 000 000 000 000 000 000 -99 -99 -99 000 000 000 000 000 000 -99 000 -99 -99 -99 -99 -99 -99 -99 -99 -99
000 000 000 000 000 000 000 000 000 000 -99 -99 -99 000 000 000 000 000 000 -99 -99 -99 000 000 000 000 -99 -99 -99 -99 000
000 000 000 000 000 000 000 000 000 -99 -99 -99 -99 -99 000 000 000 000 000 -99 -99 -99 000 000 000 000 -99 -99 -99 000 000
000 000 000 000 000 000 000 000 000 000 -99 -99 -99 000 000 000 000 000 000 -99 -99 000 000 000 000 000 000 000 000 000 000
-99 000 000 000 000 000 000 000 000 000 000 -99 000 000 000 000 000 000 -99 000 000 000 000 000 000 000 000 000 000 000 000
-99 000 000 000 000 -99 000 000 000 000 000 -99 000 000 000 000 000 000 000 000 000 000 000 000 000 000 000 000 000 000 000
000 000 -99 000 000 -99 -99 000 000 000 000 -99 000 000 000 000 000 000 000 000 000 000 000 000 000 000 000 000 -99 -99 000
000 -99 -99 000 000 -99 -99 -99 000 000 -99 -99 -99 000 000 000 000 000 000 000 000 000 -99 000 000 000 000 -99 -99 -99 000
000 000 000 000 000 000 -99 -99 -99 000 -99 -99 -99 000 000 000 000 000 000 -99 000 000 -99 000 000 000 000 -99 -99 -99 -99
000 000 000 000 000 -99 -99 -99 -99 -99 -99 -99 000 000 000 000 000 000 -99 -99 000 -99 -99 000 000 000 000 -99 -99 -99 -99
000 000 000 000 000 -99 -99 -99 -99 000 -99 -99 000 000 000 000 000 000 -99 -99 -99 -99 -99 000 000 000 000 -99 -99 -99 -99
000 000 -99 000 -99 -99 -99 000 000 000 -99 -99 000 000 000 000 000 000 -99 -99 -99 -99 -99 000 000 000 -99 -99 -99 -99 -99
000 000 -99 -99 -99 -99 -99 -99 -99 -99 -99 -99 000 000 000 000 000 000 000 -99 -99 -99 -99 000 000 000 -99 -99 -99 -99 -99
000 000 -99 -99 -99 -99 -99 -99 -99 -99 -99 -99 000 000 000 000 000 000 000 -99 -99 -99 000 000 000 000 -99 -99 -99 -99 -99
000 000 -99 -99 -99 -99 -99 -99 -99 -99 -99 -99 000 -99 000 000 000 000 000 -99 -99 -99 -99 000 000 -99 -99 -99 -99 -99 -99
000 -99 -99 -99 -99 -99 -99 -99 -99 -99 -99 -99 000 -99 -99 -99 000 000 000 -99 -99 -99 -99 000 000 -99 -99 -99 -99 -99 -99
000 -99 -99 -99 -99 -99 -99 -99 -99 -99 -99 -99 -99 -99 -99 -99 -99 000 000 000 -99 -99 000 000 000 -99 -99 -99 -99 -99 -99
-99 -99 -99 -99 -99 -99 -99 -99 -99 -99 -99 -99 -99 -99 -99 -99 -99 000 000 -99 -99 -99 000 000 -99 -99 -99 -99 -99 -99 -99
-99 -99 -99 -99 -99 -99 -99 -99 -99 -99 -99 -99 -99 -99 -99 -99 -99 000 -99 -99 -99 -99 000 000 -99 -99 -99 000 -99 -99 -99
-99 -99 -99 -99 -99 -99 -99 -99 -99 -99 -99 -99 -99 -99 -99 -99 -99 000 -99 -99 -99 000 -99 -99 -99 -99 -99 000 -99 -99 -99
-99 -99 -99 -99 -99 -99 -99 -99 -99 -99 -99 -99 -99 -99 -99 -99 -99 -99 -99 -99 -99 -99 -99 -99 -99 -99 000 -99 -99 -99 -99
-99 -99 -99 -99 -99 -99 -99 -99 -99 -99 -99 -99 -99 -99 -99 -99 -99 -99 -99 000 -99 -99 -99 -99 -99 -99 -99 -99 -99 -99 -99
-99 -99 -99 -99 -99 -99 -99 -99 -99 -99 -99 -99 -99 -99 -99 -99 -99 000 000 000 -99 -99 -99 -99 -99 -99 -99 -99 -99 -99 -99
-99 -99 -99 -99 -99 -99 -99 -99 -99 -99 -99 -99 -99 -99 -99 -99 -99 000 -99 -99 -99 -99 -99 -99 -99 -99 -99 -99 -99 -99 -99
-99 -99 -99 -99 -99 -99 -99 -99 -99 -99 -99 -99 -99 -99 -99 -99 -99 -99 -99 -99 -99 -99 -99 -99 -99 -99 -99 -99 -99 -99 -99
